(set-logic HORN)
(declare-datatypes ((Nat_1 0)) (((Z_4 ) (Z_5 (unS_0 Nat_1)))))
(declare-fun diseqNat_1 (Nat_1 Nat_1) Bool)
(declare-datatypes ((list_0 0)) (((nil_0 ) (cons_0 (head_0 Nat_1) (tail_0 list_0)))))
(declare-fun diseqlist_0 (list_0 list_0) Bool)
(declare-datatypes ((Nat_0 0)) (((Z_0 ) (S_0 (projS_0 Nat_0)))))
(declare-fun take_0 (list_0 Nat_0 list_0) Bool)
(declare-fun drop_0 (list_0 Nat_0 list_0) Bool)
(declare-fun x_6 (Nat_0 Nat_0 Nat_0) Bool)
(assert (forall ((x_51 Nat_1))
	(diseqNat_1 Z_4 (Z_5 x_51))))
(assert (forall ((x_52 Nat_1))
	(diseqNat_1 (Z_5 x_52) Z_4)))
(assert (forall ((x_53 Nat_1) (x_54 Nat_1))
	(=> (diseqNat_1 x_53 x_54) (diseqNat_1 (Z_5 x_53) (Z_5 x_54)))))
(assert (forall ((x_31 Nat_1) (x_32 list_0))
	(diseqlist_0 nil_0 (cons_0 x_31 x_32))))
(assert (forall ((x_33 Nat_1) (x_34 list_0))
	(diseqlist_0 (cons_0 x_33 x_34) nil_0)))
(assert (forall ((x_35 Nat_1) (x_36 list_0) (x_37 Nat_1) (x_38 list_0))
	(=> (diseqNat_1 x_35 x_37) (diseqlist_0 (cons_0 x_35 x_36) (cons_0 x_37 x_38)))))
(assert (forall ((x_35 Nat_1) (x_36 list_0) (x_37 Nat_1) (x_38 list_0))
	(=> (diseqlist_0 x_36 x_38) (diseqlist_0 (cons_0 x_35 x_36) (cons_0 x_37 x_38)))))
(assert (forall ((x_9 list_0) (x_1 Nat_1) (x_2 list_0) (z_1 Nat_0))
	(=> (take_0 x_9 z_1 x_2) (take_0 (cons_0 x_1 x_9) (S_0 z_1) (cons_0 x_1 x_2)))))
(assert (forall ((z_1 Nat_0))
	(take_0 nil_0 (S_0 z_1) nil_0)))
(assert (forall ((y_0 list_0))
	(take_0 nil_0 Z_0 y_0)))
(assert (forall ((x_12 list_0) (x_4 Nat_1) (x_5 list_0) (z_2 Nat_0))
	(=> (drop_0 x_12 z_2 x_5) (drop_0 x_12 (S_0 z_2) (cons_0 x_4 x_5)))))
(assert (forall ((z_2 Nat_0))
	(drop_0 nil_0 (S_0 z_2) nil_0)))
(assert (forall ((x_15 list_0))
	(drop_0 x_15 Z_0 x_15)))
(assert (forall ((x_17 Nat_0) (z_3 Nat_0) (y_2 Nat_0))
	(=> (x_6 x_17 z_3 y_2) (x_6 (S_0 x_17) (S_0 z_3) y_2))))
(assert (forall ((x_18 Nat_0))
	(x_6 x_18 Z_0 x_18)))
(assert (forall ((x_19 list_0) (x_20 list_0) (x_21 Nat_0) (x_22 list_0) (x_23 list_0) (n_0 Nat_0) (m_0 Nat_0) (xs_0 list_0))
	(=> (and (diseqlist_0 x_20 x_23) (drop_0 x_19 m_0 xs_0) (take_0 x_20 n_0 x_19) (x_6 x_21 n_0 m_0) (take_0 x_22 x_21 xs_0) (drop_0 x_23 m_0 x_22)) false)))
(check-sat)
(get-model)
